&CONTROL
   calculation      = 'scf'
   tstress          = .true.
   tprnfor          = .true.
   outdir           = './'
   disk_io          = 'none'
   pseudo_dir       = '/scratch/ztzhao/DPGEN/pseudo/'
/
&SYSTEM
   ecutwfc          = 80.0
   ecutrho          = 600.0
   nosym            = .true.
   occupations      = 'smearing'
   degauss          = 0.01
   smearing         = 'cold'
   ntyp             = 2
   nat              = 48
   ibrav            = 0
/
&ELECTRONS
   conv_thr         = 1e-06
   diagonalization  = 'david'
/
&IONS
/
&CELL
/
&FCP
/
&RISM
/
ATOMIC_SPECIES
H 1.008 H.upf
O 15.999 O.upf

K_POINTS automatic
6 6 6  0 0 0

CELL_PARAMETERS angstrom
8.48014446720000 0.00000000000000 0.00000000000000
-0.00000000000000 7.37549054480000 0.00000000000000
0.00000000000000 0.00000000000000 6.92635254640000

ATOMIC_POSITIONS angstrom
H 2.1318934415 1.2137282320 2.0770247184  
H 6.3537597942 1.2237596746 2.0777691863  
H 0.0074597464 2.4755753575 5.5252976853  
H 4.2413656824 2.4763545738 5.5355136612  
H 2.1258140033 0.2947340217 3.3435215815  
H 6.3585571884 0.2895633380 3.3495300451  
H -0.0013557813 3.3984294122 6.8125916806  
H 4.2500587057 3.3850154643 6.8070796796  
H 0.7828266722 1.9729131376 3.5838947286  
H 5.0207783774 1.9611630843 3.5741867537  
H 3.4639760540 1.9652941794 3.5780075160  
H 7.6837651614 1.9645502835 3.5893991800  
H 1.3409449053 1.7023185879 0.1297643987  
H 5.5753052870 1.7226041852 0.1087260184  
H 2.9064031634 1.7103035714 0.1204765184  
H 7.1568976919 1.7162949528 0.1205090987  
H -0.0051311618 4.9063887783 2.0600796167  
H 4.2371035153 4.9001878433 2.0770744094  
H 2.1218490070 6.1710055699 5.5410436750  
H 6.3607780382 6.1662126119 5.5354529102  
H -0.0026322269 3.9781688294 3.3593182680  
H 4.2326754667 3.9884717088 3.3419780579  
H 2.1162579101 7.0845231470 6.8158930981  
H 6.3604253633 7.0818608139 6.8114199094  
H 2.9093731743 5.6679559450 3.5852159895  
H 7.1457685674 5.6608839997 3.5834415607  
H 1.3472016672 5.6615716118 3.5840632187  
H 5.5732330639 5.6636214217 3.5804949142  
H 3.4519404696 5.4029716269 0.1215702454  
H 7.6940485955 5.4010678627 0.1169171083  
H 0.7837315178 5.3994461849 0.1176301904  
H 5.0220047395 5.3934472710 0.1227983799  
O 2.1161560741 1.2126948615 3.0339799936  
O 6.3638228278 1.2233270062 3.0563332076  
O 0.0002663398 2.4717127119 6.5147433645  
O 4.2463080000 2.4554570286 6.5227582880  
O 0.0083961135 2.4415668903 3.9105758211  
O 4.2496322256 2.4505350895 3.9266526467  
O 2.1231981216 1.2424651834 0.4451178939  
O 6.3661160152 1.2286493926 0.4462605175  
O -0.0007278056 4.9055842180 3.0508531628  
O 4.2399536082 4.9073663813 3.0490121188  
O 2.1125249643 6.1689776633 6.5078821875  
O 6.3605298530 6.1699579283 6.5040471674  
O 2.1234293068 6.1519570085 3.9227477663  
O 6.3599851138 6.1345544527 3.9079401378  
O 0.0004381122 4.9256021004 0.4430769542  
O 4.2328312145 4.9232860278 0.4447511974  

