&CONTROL
   calculation      = 'scf'
   tstress          = .true.
   tprnfor          = .true.
   outdir           = './'
   disk_io          = 'none'
   pseudo_dir       = '/scratch/ztzhao/DPGEN/pseudo/'
/
&SYSTEM
   ecutwfc          = 80.0
   ecutrho          = 600.0
   nosym            = .true.
   occupations      = 'smearing'
   degauss          = 0.01
   smearing         = 'cold'
   ntyp             = 2
   nat              = 48
   ibrav            = 0
/
&ELECTRONS
   conv_thr         = 1e-06
   diagonalization  = 'david'
/
&IONS
/
&CELL
/
&FCP
/
&RISM
/
ATOMIC_SPECIES
H 1.008 H.upf
O 15.999 O.upf

K_POINTS automatic
6 6 6  0 0 0

CELL_PARAMETERS angstrom
8.48014446720000 0.00000000000000 0.00000000000000
-0.00000000000000 7.37549054480000 0.00000000000000
0.00000000000000 0.00000000000000 6.92635254640000

ATOMIC_POSITIONS angstrom
H 2.1080767700 1.2009553014 2.0767245228  
H 6.3668563885 1.2084190646 2.0738219941  
H -0.0053531786 2.4682522872 5.5358596089  
H 4.2439723333 2.4766843416 5.5369825830  
H 2.1210300668 0.2945246669 3.3504767560  
H 6.3728242658 0.2803855046 3.3569388790  
H -0.0031384298 3.3921900256 6.8153491777  
H 4.2401093693 3.3949926692 6.8040550671  
H 0.7859332093 1.9769113589 3.5832774355  
H 5.0097668322 1.9794545439 3.5892971774  
H 3.4548525369 1.9713364557 3.5857487631  
H 7.7090456130 1.9794356791 3.5792833001  
H 1.3360075178 1.7101233017 0.1218282894  
H 5.5651709655 1.7048056878 0.1290109550  
H 2.9152087662 1.7082799577 0.1120681951  
H 7.1430898292 1.7162290655 0.1216223055  
H -0.0030812477 4.8930063330 2.0733405178  
H 4.2378390674 4.9001811939 2.0837934892  
H 2.1204570046 6.1672981747 5.5388585043  
H 6.3640320454 6.1699005897 5.5308966016  
H -0.0005307020 3.9827650283 3.3394363685  
H 4.2393954377 3.9794887393 3.3483990496  
H 2.1131048237 7.0850162590 6.8179389125  
H 6.3543772818 7.0820892991 6.8029966413  
H 2.9082943327 5.6782840507 3.5910085030  
H 7.1253756335 5.6663797907 3.5767621601  
H 1.3349096769 5.6656644942 3.5841752546  
H 5.5749878696 5.6711011860 3.5700996550  
H 3.4542327988 5.3955425538 0.1261557278  
H 7.7012910737 5.3966708499 0.1216316130  
H 0.7821566753 5.4049509140 0.1239563715  
H 5.0299455719 5.4002090304 0.1296854015  
O 2.1263588495 1.2243837831 3.0574910264  
O 6.3453110218 1.2181942849 3.0420248829  
O 0.0094047254 2.4709202176 6.5221717772  
O 4.2331411653 2.4625438117 6.5124945533  
O -0.0028495261 2.4542147214 3.9102430358  
O 4.2359077729 2.4575253114 3.8987779680  
O 2.1109992436 1.2314099014 0.4532864267  
O 6.3593489698 1.2328758130 0.4526364532  
O 0.0054930395 4.9122453703 3.0546222863  
O 4.2321968983 4.9111092971 3.0550530096  
O 2.1267173316 6.1559302021 6.5294911006  
O 6.3544525732 6.1642471324 6.5208233636  
O 2.1156634543 6.1446513783 3.9190612340  
O 6.3599078993 6.1394787717 3.9127562755  
O 0.0004251643 4.9291843926 0.4540157704  
O 4.2461067927 4.9403823722 0.4434944932  

