&CONTROL
   calculation      = 'scf'
   tstress          = .true.
   tprnfor          = .true.
   outdir           = './'
   disk_io          = 'none'
   pseudo_dir       = '/scratch/ztzhao/DPGEN/pseudo/'
/
&SYSTEM
   ecutwfc          = 80.0
   ecutrho          = 600.0
   nosym            = .true.
   occupations      = 'smearing'
   degauss          = 0.01
   smearing         = 'cold'
   ntyp             = 2
   nat              = 48
   ibrav            = 0
/
&ELECTRONS
   conv_thr         = 1e-06
   diagonalization  = 'david'
/
&IONS
/
&CELL
/
&FCP
/
&RISM
/
ATOMIC_SPECIES
H 1.008 H.upf
O 15.999 O.upf

K_POINTS automatic
6 6 6  0 0 0

CELL_PARAMETERS angstrom
8.48014446720000 0.00000000000000 0.00000000000000
-0.00000000000000 7.37549054480000 0.00000000000000
0.00000000000000 0.00000000000000 6.92635254640000

ATOMIC_POSITIONS angstrom
H 2.1200361168 1.2093537268 2.0730449190  
H 6.3601083504 1.2093537268 2.0730449190  
H -0.0000000000 2.4783915456 5.5362211922  
H 4.2400722336 2.4783915456 5.5362211922  
H 2.1200361168 0.2915551326 3.3491801466  
H 6.3601083504 0.2915551326 3.3491801466  
H -0.0000000000 3.3961901398 6.8123564198  
H 4.2400722336 3.3961901398 6.8123564198  
H 0.7843927777 1.9757187122 3.5815307379  
H 5.0244650113 1.9757187122 3.5815307379  
H 3.4556794559 1.9757187122 3.5815307379  
H 7.6957516895 1.9757187122 3.5815307379  
H 1.3356433391 1.7120265602 0.1183544647  
H 5.5757155727 1.7120265602 0.1183544647  
H 2.9044288945 1.7120265602 0.1183544647  
H 7.1445011281 1.7120265602 0.1183544647  
H -0.0000000000 4.8970989992 2.0730449190  
H 4.2400722336 4.8970989992 2.0730449190  
H 2.1200361168 6.1661368180 5.5362211922  
H 6.3601083504 6.1661368180 5.5362211922  
H -0.0000000000 3.9793004050 3.3491801466  
H 4.2400722336 3.9793004050 3.3491801466  
H 2.1200361168 7.0839354122 6.8123564198  
H 6.3601083504 7.0839354122 6.8123564198  
H 2.9044288945 5.6634639846 3.5815307379  
H 7.1445011281 5.6634639846 3.5815307379  
H 1.3356433391 5.6634639846 3.5815307379  
H 5.5757155727 5.6634639846 3.5815307379  
H 3.4556794559 5.3997718326 0.1183544647  
H 7.6957516895 5.3997718326 0.1183544647  
H 0.7843927777 5.3997718326 0.1183544647  
H 5.0244650113 5.3997718326 0.1183544647  
O 2.1200361168 1.2194436191 3.0488973440  
O 6.3601083504 1.2194436191 3.0488973440  
O -0.0000000000 2.4683016533 6.5120736172  
O 4.2400722336 2.4683016533 6.5120736172  
O -0.0000000000 2.4522132008 3.9120037104  
O 4.2400722336 2.4522132008 3.9120037104  
O 2.1200361168 1.2355320716 0.4488274372  
O 6.3601083504 1.2355320716 0.4488274372  
O -0.0000000000 4.9071888915 3.0488973440  
O 4.2400722336 4.9071888915 3.0488973440  
O 2.1200361168 6.1560469257 6.5120736172  
O 6.3601083504 6.1560469257 6.5120736172  
O 2.1200361168 6.1399584732 3.9120037104  
O 6.3601083504 6.1399584732 3.9120037104  
O -0.0000000000 4.9232773440 0.4488274372  
O 4.2400722336 4.9232773440 0.4488274372  

